702 5
10 10 10 10 10 

0 0 0 0 0 0 5 2 54 106 158 170 
0 0 0 0 0 0 4 3 4 5 6 
5 1 4 1 1 1 4 14 9 8 7 
6 7 3 5 1 5 5 14 9 8 7 540 
7 6 5 4 6 4 3 10 9 8 
8 5 1 5 3 6 2 10 8 
1 4 3 5 7 7 3 12 11 10 
6 1 8 8 4 7 3 16 12 11 
8 7 7 3 3 6 2 16 11 
2 5 7 3 7 7 3 17 16 15 
10 2 5 2 4 7 1 13 
2 3 8 9 2 8 1 13 
1 8 8 7 4 4 3 22 17 15 
7 4 4 4 10 5 3 19 18 16 
10 2 3 7 6 4 2 19 18 
9 4 5 6 5 5 2 22 20 
9 9 8 6 10 4 1 18 
4 4 6 3 7 8 1 20 
10 7 4 4 4 5 1 20 
7 5 6 3 8 4 3 29 26 21 
7 7 2 2 5 5 3 25 24 23 
9 5 5 3 6 4 3 29 24 23 
9 6 7 6 5 7 1 27 
2 3 5 4 4 2 1 27 
10 3 6 6 6 3 1 27 
2 8 1 8 7 5 1 27 
4 3 8 2 4 3 1 28 
7 4 7 5 6 4 1 30 
1 4 5 4 7 6 1 30 
1 6 3 6 3 5 2 33 31 
4 5 5 4 3 5 2 36 32 
4 3 5 6 5 6 2 35 34 
4 5 4 5 6 8 1 34 
1 7 3 2 6 3 2 38 37 
10 4 6 9 5 6 1 37 
4 4 2 6 5 4 1 37 
2 3 1 2 7 7 3 43 40 39 
8 4 10 10 7 2 3 43 40 39 
8 5 4 5 3 6 1 41 
8 4 2 5 7 6 1 41 
10 4 3 6 3 3 1 42 
4 7 8 4 2 8 1 44 
8 8 3 7 3 6 1 44 
3 8 8 7 5 5 1 45 
7 6 6 5 8 7 2 48 46 
9 7 6 5 2 6 1 47 
6 7 5 4 8 4 2 50 49 
7 2 5 5 2 3 1 49 
8 8 7 7 5 4 2 52 51 
6 5 5 2 5 2 2 52 51 
9 7 6 6 5 3 1 53 
6 4 2 7 3 5 1 53 
0 0 0 0 0 0 1 702 
0 0 0 0 0 0 4 55 56 57 59 
2 3 1 5 1 1 5 67 65 64 63 60 
5 2 5 4 4 3 2 63 58 
3 7 4 5 6 3 1 58 
4 5 6 8 4 9 3 70 67 61 
1 6 7 3 3 4 3 70 67 61 
3 4 4 4 5 3 1 61 
1 3 4 7 5 7 1 62 
2 6 2 6 5 4 4 74 72 71 66 
3 8 8 3 7 5 3 71 70 66 
9 4 6 3 7 7 3 72 70 68 
8 7 6 7 6 5 2 70 68 
5 5 7 5 6 5 1 68 
2 4 8 5 6 5 1 68 
6 3 9 8 4 7 1 69 
9 7 3 5 4 5 4 81 79 77 73 
6 3 6 5 6 3 3 79 74 73 
5 2 3 6 9 7 4 81 77 76 75 
1 8 5 5 6 2 1 73 
6 6 3 5 6 5 2 76 75 
1 2 6 4 2 4 1 77 
1 2 6 5 3 5 1 78 
10 2 2 1 5 3 1 78 
7 2 7 5 5 4 1 78 
9 10 5 5 1 7 1 80 
6 2 4 3 3 7 1 80 
6 5 3 3 4 4 1 82 
3 5 5 10 4 7 1 82 
2 3 6 4 3 5 3 87 85 83 
3 5 4 6 3 2 1 84 
4 3 4 7 6 3 2 91 86 
9 2 1 3 5 6 1 86 
10 7 2 4 8 2 3 93 89 88 
7 6 3 7 8 6 2 93 88 
7 5 5 3 7 3 3 95 90 200 
5 8 6 4 4 7 2 95 90 
10 3 4 8 4 4 1 92 
10 5 3 5 10 7 1 93 
6 3 6 7 6 7 1 94 
3 6 4 6 6 5 1 94 
1 7 5 4 2 6 1 96 
8 5 8 6 5 9 1 96 
8 4 7 4 2 2 1 97 
6 5 5 7 8 5 2 100 98 
10 4 6 4 6 5 2 101 99 
5 7 6 5 6 4 2 104 102 
9 8 6 4 5 7 2 104 102 
6 8 4 4 8 7 2 104 103 
10 8 7 5 4 4 1 103 
8 8 7 4 5 8 1 105 
5 7 6 4 2 5 1 105 
0 0 0 0 0 0 1 702 
0 0 0 0 0 0 4 107 108 109 110 
7 1 1 2 1 5 5 118 114 113 112 111 
1 6 7 6 5 6 4 118 113 112 111 
4 4 3 10 6 4 2 114 111 
7 5 6 8 3 4 3 117 115 114 
9 5 8 4 6 4 3 119 117 115 
8 5 7 4 5 5 3 119 116 239 
1 7 4 7 6 2 1 115 
3 4 3 3 1 3 4 124 123 120 119 
8 4 7 5 5 6 1 116 
7 8 6 5 5 7 4 126 124 123 120 
6 9 5 5 3 5 4 126 124 123 121 
5 8 5 6 6 5 3 123 121 119 
4 4 6 4 4 7 2 126 122 
1 5 6 4 3 5 1 121 
3 5 6 5 7 3 1 122 
9 3 5 2 4 5 3 133 131 125 
7 7 6 7 5 10 3 133 131 125 
3 4 6 3 9 7 3 133 131 125 
4 7 8 5 4 1 3 129 128 127 
2 3 5 1 5 5 2 128 127 
7 5 1 6 6 7 1 130 
2 3 2 7 2 4 1 130 
1 4 3 6 4 2 1 130 
7 4 7 6 8 5 1 132 
8 3 6 5 8 7 1 132 
2 6 8 6 3 10 1 134 
2 2 2 7 3 4 1 134 
3 5 2 6 6 2 3 139 137 135 
6 6 5 7 1 5 1 136 
6 5 4 6 6 3 2 142 138 
9 6 4 6 3 7 1 138 
1 9 5 4 8 4 2 141 140 
7 4 5 8 6 4 1 140 
8 2 7 6 3 4 3 147 144 143 
7 5 4 5 7 8 3 147 144 143 
9 7 5 5 4 3 1 143 
8 5 7 4 6 5 1 145 
2 5 3 6 7 5 1 145 
5 7 5 4 7 5 1 146 
3 7 3 6 5 4 1 148 
8 4 4 2 4 5 1 148 
4 7 5 5 8 6 1 149 
8 5 3 4 7 8 2 152 150 
5 5 4 3 5 2 2 153 151 
6 4 2 7 6 3 2 156 154 
9 1 9 2 6 3 2 156 154 
1 3 7 7 7 7 2 156 155 
7 2 5 4 3 7 1 155 
7 6 8 2 4 2 1 157 
3 9 5 2 4 10 1 157 
0 0 0 0 0 0 1 702 
0 0 0 0 0 0 3 159 167 168 
8 0 1 0 0 0 4 166 165 162 160 
6 0 7 0 0 0 1 161 
2 0 9 0 0 0 1 163 
10 0 6 0 0 0 2 163 492 
1 0 3 0 0 0 1 164 
10 0 2 0 0 0 1 169 
8 0 4 0 0 0 1 169 
9 0 8 0 0 0 1 169 
9 0 7 0 0 0 1 169 
4 0 3 0 0 0 1 169 
0 0 0 0 0 0 5 222 264 276 318 360 
0 0 0 0 0 0 4 171 172 173 175 
9 2 2 3 1 1 5 184 181 180 179 176 
2 4 5 4 4 5 2 179 174 
6 2 5 2 5 6 1 174 
10 5 3 5 7 2 3 186 184 177 
5 5 7 6 3 6 3 186 184 177 
4 10 10 3 5 3 1 177 
8 5 5 3 4 5 1 178 
10 3 2 4 5 6 4 190 189 187 182 
4 6 3 7 7 9 4 189 187 186 182 
3 4 3 3 6 5 4 190 189 186 185 
4 5 4 4 3 5 2 189 183 
9 5 7 5 6 4 1 183 
2 3 4 4 9 8 1 185 
10 5 5 3 5 3 1 185 
4 5 8 2 7 2 5 197 195 192 188 679 
6 7 8 5 4 10 3 195 192 188 
4 6 2 7 4 5 3 197 192 191 
3 5 7 3 4 8 2 193 191 
2 3 3 7 4 3 1 192 
3 6 10 3 5 8 1 191 
8 1 4 4 5 8 1 194 
10 5 1 6 2 4 1 194 
3 3 4 4 5 5 1 194 
1 5 7 5 9 4 1 196 
8 7 3 8 6 8 1 196 
7 6 2 6 8 3 1 198 
3 2 8 6 6 6 1 198 
1 8 5 4 6 4 3 203 201 199 
4 4 5 9 6 2 1 200 
10 3 5 6 4 7 3 207 205 202 
3 5 4 7 5 6 2 205 202 
5 4 10 6 7 4 2 209 204 
4 4 8 10 1 3 2 209 205 
7 6 6 2 3 5 2 211 206 
8 3 4 4 3 6 1 206 
2 10 5 2 6 6 1 208 
1 3 3 5 7 4 1 209 
8 4 6 3 6 4 1 210 
4 9 8 6 7 7 1 210 
8 8 4 5 6 7 1 212 
9 8 6 2 4 2 1 212 
3 6 4 5 3 5 1 213 
1 8 2 4 3 6 2 216 214 
4 8 5 7 4 6 2 217 215 
5 3 3 7 3 3 2 220 218 
3 7 6 7 7 8 2 220 218 
2 1 4 6 7 3 2 220 219 
7 5 4 7 3 3 1 219 
5 5 6 5 6 3 1 221 
5 3 5 9 4 4 1 221 
0 0 0 0 0 0 1 702 
0 0 0 0 0 0 2 223 226 
1 1 2 1 0 1 1 224 
10 8 10 2 0 3 2 227 225 
1 6 2 5 0 6 4 242 233 232 228 
3 4 7 6 0 5 3 242 232 229 
2 3 3 6 0 4 5 251 247 242 234 231 
6 6 10 5 0 1 1 229 
6 4 1 3 0 4 2 234 230 
5 4 4 4 0 1 2 247 231 
6 5 4 2 0 7 3 249 244 235 
4 2 4 7 0 5 2 249 234 
6 7 9 5 0 6 5 255 249 244 239 237 
5 10 6 9 0 5 3 244 239 236 
7 7 4 3 0 5 3 239 236 268 
10 7 5 6 0 5 2 255 237 
2 4 3 6 0 6 1 238 
2 7 8 5 0 6 4 262 261 248 240 
8 7 6 7 0 4 2 248 240 
5 3 4 4 0 6 2 260 241 
5 5 8 7 0 4 2 254 243 
10 3 6 7 0 9 3 254 249 246 
3 8 5 5 0 5 1 245 
10 3 4 4 0 5 1 245 
10 5 4 7 0 4 1 246 
1 4 5 8 0 5 2 258 250 
6 4 3 4 0 6 2 252 249 
9 1 3 3 0 7 2 254 252 
6 6 5 4 0 4 3 259 258 256 
5 9 3 6 0 7 2 259 253 
4 6 6 5 0 5 2 258 254 
6 4 4 7 0 4 2 258 257 
6 9 1 5 0 6 1 256 
10 5 8 2 0 10 1 256 
10 4 3 3 0 5 1 256 
1 5 5 6 0 6 1 257 
8 3 10 4 0 4 1 263 
8 6 8 2 0 8 1 263 
9 2 6 5 0 2 1 263 
6 5 4 7 0 5 1 263 
3 4 4 10 0 4 1 263 
6 4 3 3 0 5 1 263 
0 0 0 0 0 0 1 702 
0 0 0 0 0 0 3 265 268 270 
2 0 0 0 1 0 2 267 266 
3 0 0 0 5 0 2 272 269 
2 0 0 0 2 0 2 272 269 
1 0 0 0 8 0 3 274 272 271 
9 0 0 0 4 0 3 274 271 568 
5 0 0 0 7 0 2 272 271 
6 0 0 0 5 0 1 273 
2 0 0 0 7 0 1 273 
7 0 0 0 8 0 1 275 
8 0 0 0 3 0 1 275 
0 0 0 0 0 0 5 402 434 446 478 510 
0 0 0 0 0 0 2 277 278 
9 1 1 0 3 1 1 279 
1 4 7 0 4 6 1 279 
1 5 3 0 6 7 2 281 280 
3 3 3 0 10 6 4 289 285 284 282 
4 9 4 0 7 3 4 289 285 284 283 
6 3 6 0 3 8 1 283 
4 7 3 0 7 4 3 288 287 286 
3 6 3 0 5 3 3 288 287 286 
2 5 7 0 4 2 2 287 286 
5 6 5 0 9 6 2 293 290 
1 6 2 0 5 4 2 293 290 
5 2 4 0 5 6 2 293 290 
4 8 7 0 7 4 2 293 292 
8 3 4 0 3 3 2 291 581 
5 6 5 0 6 6 1 292 
5 4 3 0 7 3 2 295 294 
5 3 2 0 2 7 1 294 
5 5 6 0 5 4 3 298 297 296 
7 4 3 0 5 6 3 299 298 297 
7 5 7 0 4 4 3 304 301 299 
5 9 6 0 2 3 3 304 303 300 
7 7 7 0 8 5 2 301 300 
10 5 5 0 6 7 1 300 
7 3 7 0 4 5 2 306 302 
8 3 5 0 3 6 1 303 
9 8 3 0 6 6 2 307 305 
5 2 5 0 5 3 2 307 305 
6 4 8 0 3 2 2 308 306 
1 7 9 0 3 8 2 310 308 
1 5 7 0 4 5 1 307 
2 3 5 0 4 3 3 311 310 309 
2 4 8 0 5 10 2 311 309 
3 7 3 0 4 6 2 313 312 
8 5 7 0 3 8 2 313 312 
6 7 4 0 7 5 2 314 313 
8 5 5 0 7 4 2 316 314 
7 2 3 0 7 7 2 316 315 
1 5 9 0 4 9 1 315 
6 7 6 0 3 2 1 317 
8 7 3 0 5 3 1 317 
0 0 0 0 0 0 1 702 
0 0 0 0 0 0 2 319 320 
7 1 1 0 3 3 1 321 
2 4 4 0 4 3 1 321 
10 7 1 0 7 5 2 323 322 
10 3 6 0 2 5 4 332 327 326 324 
3 7 5 0 5 9 4 332 327 326 325 
1 3 4 0 5 2 1 325 
7 1 1 0 4 4 3 330 329 328 
7 7 6 0 6 4 2 329 328 
8 3 6 0 5 3 2 329 328 
10 6 8 0 10 7 2 335 331 
6 5 8 0 3 2 2 335 331 
7 5 4 0 5 4 2 335 331 
5 7 2 0 3 2 1 333 
5 4 4 0 3 6 2 337 335 
5 7 7 0 1 5 1 334 
6 5 10 0 7 9 2 337 336 
8 4 3 0 9 3 1 336 
7 5 5 0 4 6 3 340 339 338 
2 5 3 0 9 3 3 341 340 339 
10 2 4 0 3 7 3 345 343 341 
1 5 7 0 6 3 3 345 344 342 
4 3 6 0 2 5 2 343 342 
9 3 5 0 2 7 1 342 
9 5 6 0 5 5 2 348 346 
10 6 6 0 6 6 1 344 
9 7 5 0 7 7 3 349 347 455 
7 7 10 0 6 6 2 350 348 
2 8 7 0 10 10 1 347 
9 6 4 0 3 7 2 352 350 
2 9 6 0 3 7 1 349 
7 4 3 0 10 4 3 353 352 351 
2 3 6 0 6 4 2 353 351 
1 4 6 0 5 5 2 356 354 
1 4 7 0 7 5 2 356 354 
7 3 2 0 2 5 3 358 356 355 
7 8 5 0 3 4 2 358 355 
8 3 4 0 7 5 1 357 
5 10 5 0 3 5 1 357 
1 5 3 0 8 5 1 359 
7 6 5 0 1 3 1 359 
0 0 0 0 0 0 1 702 
0 0 0 0 0 0 3 361 363 543 
8 0 1 2 4 1 1 362 
5 0 4 7 6 4 2 365 364 
8 0 1 5 3 5 2 365 364 
3 0 3 2 7 6 4 376 369 368 367 
9 0 5 4 3 6 3 369 368 366 
4 0 3 6 6 6 1 367 
8 0 4 5 6 6 3 372 371 370 
8 0 4 6 3 5 2 373 371 
7 0 6 4 5 6 2 373 371 
1 0 5 7 4 4 2 377 373 
3 0 6 2 5 5 2 377 374 
8 0 10 8 10 4 2 377 374 
4 0 6 10 3 7 1 374 
2 0 5 3 2 8 1 375 
4 0 5 2 4 6 3 382 379 378 
4 0 8 3 10 5 2 379 377 
2 0 6 3 5 6 3 382 381 380 
2 0 5 3 3 4 3 385 383 381 
7 0 5 3 3 7 1 380 
10 0 3 3 4 4 3 386 385 383 
2 0 5 8 5 5 3 390 386 384 
10 0 5 10 4 2 2 385 384 
2 0 6 6 7 6 1 384 
1 0 5 7 8 8 2 389 387 
8 0 5 5 5 2 3 392 390 388 
5 0 4 5 5 3 2 391 389 
8 0 3 7 6 5 1 388 
6 0 7 3 3 4 2 393 391 
10 0 1 8 6 4 2 394 392 
4 0 5 6 7 5 2 393 391 
3 0 4 2 4 8 2 395 394 
10 0 6 6 8 5 2 395 393 
2 0 3 5 4 4 2 398 396 
1 0 8 4 3 7 2 398 396 
4 0 10 5 9 4 3 400 398 397 
5 0 8 4 4 7 2 400 397 
8 0 4 4 6 5 1 399 
1 0 5 5 2 3 1 399 
10 0 6 5 3 4 1 401 
8 0 5 7 5 4 1 401 
0 0 0 0 0 0 1 702 
0 0 0 0 0 0 3 403 404 432 
2 0 2 2 0 1 2 431 405 
10 0 5 4 0 5 2 431 405 
6 0 4 6 0 3 2 411 406 
3 0 6 6 0 10 2 415 407 
1 0 5 7 0 4 3 430 424 408 
2 0 8 6 0 2 1 409 
8 0 4 4 0 5 2 418 410 
4 0 3 5 0 5 2 422 412 
10 0 9 7 0 3 3 422 415 413 
7 0 8 5 0 8 2 423 413 
6 0 6 3 0 3 1 414 
1 0 7 5 0 5 2 429 416 
2 0 9 5 0 6 1 416 
6 0 2 5 0 2 1 417 
1 0 4 10 0 9 3 428 421 419 
5 0 4 3 0 8 4 428 427 426 420 
1 0 10 4 0 4 3 427 426 420 
2 0 4 3 0 4 1 425 
4 0 3 2 0 7 1 426 
4 0 4 3 0 3 1 429 
7 0 4 4 0 4 1 425 
7 0 6 7 0 3 1 425 
3 0 8 5 0 3 1 433 
5 0 2 6 0 10 1 433 
7 0 2 5 0 6 1 433 
3 0 3 8 0 8 1 433 
9 0 8 5 0 6 1 433 
2 0 2 5 0 6 2 433 592 
5 0 3 5 0 4 1 433 
5 0 5 5 0 3 1 433 
0 0 0 0 0 0 1 702 
0 0 0 0 0 0 5 435 436 437 439 444 
8 0 0 1 0 0 3 443 438 528 
4 0 0 3 0 0 2 443 440 
7 0 0 6 0 0 2 443 441 
4 0 0 6 0 0 1 440 
2 0 0 5 0 0 1 440 
2 0 0 7 0 0 1 441 
2 0 0 6 0 0 1 442 
1 0 0 10 0 0 1 445 
7 0 0 2 0 0 1 445 
4 0 0 4 0 0 1 445 
0 0 0 0 0 0 5 542 564 586 608 620 
0 0 0 0 0 0 3 447 448 454 
2 0 1 1 0 1 2 458 449 
5 0 8 4 0 6 2 458 449 
8 0 5 4 0 7 2 453 450 
6 0 3 5 0 6 2 455 451 
8 0 5 7 0 2 1 452 
10 0 5 8 0 3 3 462 459 456 
9 0 5 5 0 6 2 456 455 
7 0 3 8 0 4 2 458 455 
8 0 5 4 0 4 2 462 457 
3 0 9 6 0 8 1 457 
2 0 5 3 0 9 3 466 464 460 
8 0 7 4 0 2 2 462 460 
9 0 5 8 0 2 3 466 464 461 
9 0 7 7 0 3 1 461 
8 0 2 7 0 4 2 469 463 
1 0 9 6 0 5 2 466 463 
8 0 7 4 0 9 1 465 
8 0 4 4 0 6 1 465 
3 0 4 6 0 3 1 467 
1 0 3 6 0 6 1 467 
5 0 2 4 0 9 2 471 468 
9 0 6 6 0 5 5 476 475 474 472 470 
4 0 6 4 0 5 2 472 470 
2 0 2 3 0 3 1 473 
6 0 6 2 0 8 1 472 
9 0 3 5 0 5 1 477 
9 0 6 3 0 4 1 477 
1 0 5 4 0 4 1 477 
1 0 6 6 0 4 1 477 
7 0 6 6 0 7 1 477 
0 0 0 0 0 0 1 702 
0 0 0 0 0 0 3 479 483 508 
2 4 1 0 0 3 2 507 480 
4 1 2 0 0 5 2 505 481 
2 6 3 0 0 3 1 482 
2 5 2 0 0 5 3 504 503 484 
4 7 6 0 0 4 3 506 503 485 
1 4 4 0 0 9 1 485 
2 4 6 0 0 5 3 502 501 486 
9 7 7 0 0 6 2 500 487 
6 6 4 0 0 5 2 499 488 
10 6 4 0 0 5 1 489 
3 3 7 0 0 3 1 490 
9 5 7 0 0 6 2 498 491 
3 4 6 0 0 5 4 497 496 495 492 
8 10 7 0 0 9 1 493 
3 10 6 0 0 4 1 494 
2 5 8 0 0 4 1 509 
6 10 4 0 0 4 1 509 
9 3 5 0 0 1 1 509 
4 3 8 0 0 7 1 509 
8 6 7 0 0 10 1 509 
8 4 2 0 0 4 1 509 
5 5 5 0 0 5 1 509 
4 3 2 0 0 1 1 509 
7 8 4 0 0 3 1 509 
7 1 6 0 0 3 1 509 
9 2 5 0 0 8 1 509 
8 6 4 0 0 6 1 509 
2 5 8 0 0 6 1 509 
6 4 6 0 0 4 1 509 
6 3 4 0 0 7 1 509 
0 0 0 0 0 0 1 702 
0 0 0 0 0 0 5 511 537 538 539 540 
2 1 0 0 2 2 2 536 512 
4 5 0 0 4 8 4 535 534 533 513 
5 3 0 0 6 7 2 532 514 
1 6 0 0 6 4 1 515 
1 9 0 0 4 5 2 531 516 
10 5 0 0 3 5 1 517 
10 5 0 0 6 6 3 530 529 518 
4 3 0 0 4 6 1 519 
5 4 0 0 8 3 2 528 520 
9 5 0 0 6 4 1 521 
10 6 0 0 5 6 3 527 526 522 
8 9 0 0 4 6 1 523 
4 6 0 0 4 4 1 524 
3 8 0 0 3 5 1 525 
4 5 0 0 5 2 1 541 
5 2 0 0 8 8 1 541 
7 3 0 0 5 7 1 541 
7 4 0 0 4 3 1 541 
1 3 0 0 6 4 1 541 
6 5 0 0 7 3 1 541 
9 6 0 0 5 5 1 541 
4 4 0 0 6 2 1 541 
2 4 0 0 5 3 1 541 
2 4 0 0 3 4 1 541 
7 3 0 0 10 4 1 541 
10 7 0 0 3 6 1 541 
3 5 0 0 7 6 1 541 
8 5 0 0 4 7 1 541 
3 9 0 0 4 10 1 541 
10 6 0 0 3 5 1 541 
0 0 0 0 0 0 1 702 
0 0 0 0 0 0 2 543 545 
3 0 1 0 1 0 2 549 544 
5 0 3 0 5 0 2 553 546 
7 0 6 0 4 0 2 553 546 
4 0 5 0 7 0 3 562 557 547 
5 0 9 0 9 0 3 556 550 548 
4 0 5 0 5 0 3 561 559 551 
2 0 8 0 5 0 3 560 559 552 
2 0 5 0 2 0 2 559 554 
9 0 4 0 6 0 1 552 
3 0 2 0 5 0 1 554 
2 0 6 0 9 0 2 560 559 
4 0 5 0 2 0 1 555 
8 0 4 0 4 0 1 558 
10 0 6 0 3 0 1 561 
2 0 7 0 7 0 1 560 
10 0 6 0 8 0 1 563 
9 0 4 0 4 0 1 563 
4 0 6 0 4 0 1 563 
1 0 5 0 7 0 1 563 
8 0 3 0 3 0 1 563 
0 0 0 0 0 0 1 702 
0 0 0 0 0 0 1 565 
6 1 0 0 0 1 1 566 
1 5 0 0 0 4 3 571 568 567 
10 6 0 0 0 6 1 569 
6 5 0 0 0 4 1 569 
6 7 0 0 0 10 2 579 570 
4 4 0 0 0 3 5 584 576 574 573 572 
1 4 0 0 0 4 3 584 574 573 
2 4 0 0 0 4 1 575 
6 6 0 0 0 4 2 583 577 
4 7 0 0 0 2 2 583 577 
2 3 0 0 0 8 2 583 577 
1 4 0 0 0 3 2 583 577 
1 5 0 0 0 6 2 580 578 
5 8 0 0 0 5 2 582 581 
10 6 0 0 0 4 2 584 580 
6 7 0 0 0 9 1 585 
9 5 0 0 0 6 1 585 
1 7 0 0 0 7 1 585 
6 4 0 0 0 7 1 585 
10 2 0 0 0 3 1 585 
0 0 0 0 0 0 1 702 
0 0 0 0 0 0 7 587 601 602 603 604 605 606 
10 0 1 0 0 1 2 600 588 
1 0 6 0 0 10 2 599 589 
5 0 5 0 0 3 2 598 590 
4 0 4 0 0 4 1 591 
6 0 5 0 0 5 2 597 592 
7 0 8 0 0 3 1 593 
2 0 3 0 0 1 1 594 
4 0 8 0 0 10 1 595 
10 0 5 0 0 7 1 596 
5 0 7 0 0 5 1 607 
2 0 5 0 0 5 1 607 
7 0 4 0 0 8 1 607 
2 0 3 0 0 5 1 607 
10 0 4 0 0 4 1 607 
9 0 3 0 0 3 1 607 
9 0 4 0 0 7 1 607 
1 0 6 0 0 5 1 607 
8 0 6 0 0 3 1 607 
7 0 7 0 0 6 1 607 
5 0 6 0 0 5 1 607 
0 0 0 0 0 0 1 702 
0 0 0 0 0 0 4 609 612 617 618 
7 1 0 0 0 0 1 610 
8 2 0 0 0 0 2 616 611 
3 6 0 0 0 0 2 614 613 
1 4 0 0 0 0 2 616 614 
5 7 0 0 0 0 1 615 
4 4 0 0 0 0 1 619 
9 6 0 0 0 0 1 619 
5 4 0 0 0 0 1 619 
9 6 0 0 0 0 1 619 
7 10 0 0 0 0 1 619 
0 0 0 0 0 0 5 642 654 666 678 690 
0 0 0 0 0 0 2 621 640 
7 0 0 1 1 0 1 622 
1 0 0 9 4 0 2 639 623 
10 0 0 6 5 0 2 631 624 
1 0 0 2 7 0 3 638 629 625 
8 0 0 6 5 0 2 636 626 
9 0 0 4 6 0 1 627 
6 0 0 4 3 0 3 635 634 628 
7 0 0 6 5 0 2 633 630 
6 0 0 6 10 0 2 633 630 
8 0 0 9 2 0 1 632 
4 0 0 4 6 0 1 637 
7 0 0 3 7 0 1 641 
6 0 0 3 3 0 1 641 
4 0 0 6 3 0 1 641 
10 0 0 5 3 0 1 641 
4 0 0 5 5 0 1 641 
7 0 0 6 6 0 1 641 
10 0 0 4 8 0 1 641 
10 0 0 7 4 0 1 641 
9 0 0 4 7 0 1 641 
0 0 0 0 0 0 1 702 
0 0 0 0 0 0 3 643 651 652 
6 0 0 0 1 0 3 650 649 644 
9 0 0 0 5 0 2 648 645 
4 0 0 0 5 0 1 646 
8 0 0 0 6 0 1 647 
8 0 0 0 10 0 1 653 
5 0 0 0 6 0 1 653 
4 0 0 0 6 0 1 653 
7 0 0 0 4 0 1 653 
7 0 0 0 3 0 1 653 
2 0 0 0 4 0 1 653 
0 0 0 0 0 0 1 702 
0 0 0 0 0 0 2 655 657 
5 1 0 0 0 0 2 658 656 
7 9 0 0 0 0 3 662 660 659 
6 9 0 0 0 0 2 662 658 
9 3 0 0 0 0 2 664 660 
8 4 0 0 0 0 2 664 661 
5 5 0 0 0 0 1 661 
10 5 0 0 0 0 1 663 
4 4 0 0 0 0 1 663 
4 3 0 0 0 0 1 665 
6 7 0 0 0 0 1 665 
0 0 0 0 0 0 1 702 
0 0 0 0 0 0 2 667 668 
5 0 0 0 1 0 3 672 670 669 
1 0 0 0 8 0 3 676 672 671 
7 0 0 0 4 0 2 674 671 
6 0 0 0 6 0 2 676 673 
7 0 0 0 4 0 1 673 
10 0 0 0 4 0 1 673 
1 0 0 0 6 0 1 675 
4 0 0 0 6 0 1 676 
4 0 0 0 5 0 1 677 
3 0 0 0 6 0 1 677 
0 0 0 0 0 0 1 702 
0 0 0 0 0 0 5 679 681 684 687 688 
2 0 0 2 0 0 1 680 
9 0 0 5 0 0 1 682 
4 0 0 3 0 0 2 686 685 
7 0 0 6 0 0 1 683 
6 0 0 4 0 0 1 685 
1 0 0 5 0 0 1 686 
2 0 0 10 0 0 1 689 
8 0 0 6 0 0 1 689 
10 0 0 6 0 0 1 689 
2 0 0 3 0 0 1 689 
0 0 0 0 0 0 1 702 
0 0 0 0 0 0 3 691 692 693 
6 0 0 1 0 0 3 700 696 695 
4 0 0 5 0 0 2 695 694 
1 0 0 9 0 0 3 700 699 698 
6 0 0 4 0 0 1 696 
5 0 0 5 0 0 2 699 698 
4 0 0 3 0 0 1 697 
4 0 0 7 0 0 1 698 
4 0 0 5 0 0 1 701 
8 0 0 6 0 0 1 701 
6 0 0 5 0 0 1 701 
0 0 0 0 0 0 1 702 
0 0 0 0 0 0 0 
